; Copyright (c) 2026 The RIINA Authors. All rights reserved.
; Auto-generated from 02_FORMAL/coq/domains/MalaysiaMCMC.v (20 validations)
; Generated by scripts/generate-full-stack.py
;
; Translation Validation for MalaysiaMCMC
; Layer 9: Verifies compiler backend preserves formal semantics.
; Each assertion checks source IR ≡ target code for a proven property.

(set-logic QF_LIA)
(set-option :produce-models true)

; IR node representation
(declare-sort IRNode 0)
(declare-sort TargetNode 0)

; no_unauthorized_interception: source semantics (matches Coq)
(declare-fun source_no_unauthorized_interception () Bool)
(declare-fun target_no_unauthorized_interception () Bool)
(assert (= source_no_unauthorized_interception target_no_unauthorized_interception))

; fraud_controls_active: source semantics (matches Coq)
(declare-fun source_fraud_controls_active () Bool)
(declare-fun target_fraud_controls_active () Bool)
(assert (= source_fraud_controls_active target_fraud_controls_active))

; mcmc_fully_compliant: source semantics (matches Coq)
(declare-fun source_mcmc_fully_compliant () Bool)
(declare-fun target_mcmc_fully_compliant () Bool)
(assert (= source_mcmc_fully_compliant target_mcmc_fully_compliant))

; license_level: source semantics (matches Coq)
(declare-fun source_license_level () Bool)
(declare-fun target_license_level () Bool)
(assert (= source_license_level target_license_level))

; count_mcmc_controls: source semantics (matches Coq)
(declare-fun source_count_mcmc_controls () Bool)
(declare-fun target_count_mcmc_controls () Bool)
(assert (= source_count_mcmc_controls target_count_mcmc_controls))

; license_eqb: source semantics (matches Coq)
(declare-fun source_license_eqb () Bool)
(declare-fun target_license_eqb () Bool)
(assert (= source_license_eqb target_license_eqb))

; s234_encrypted_compliant: translation preserves property (matches Coq: Theorem)
(declare-fun source_s234_encrypted_compliant () Bool)
(declare-fun target_s234_encrypted_compliant () Bool)
(assert (= source_s234_encrypted_compliant target_s234_encrypted_compliant))

; s234_authorized_compliant: translation preserves property (matches Coq: Theorem)
(declare-fun source_s234_authorized_compliant () Bool)
(declare-fun target_s234_authorized_compliant () Bool)
(assert (= source_s234_authorized_compliant target_s234_authorized_compliant))

; s236_fraud_prevention: translation preserves property (matches Coq: Theorem)
(declare-fun source_s236_fraud_prevention () Bool)
(declare-fun target_s236_fraud_prevention () Bool)
(assert (= source_s236_fraud_prevention target_s236_fraud_prevention))

; mcmc_composition: translation preserves property (matches Coq: Theorem)
(declare-fun source_mcmc_composition () Bool)
(declare-fun target_mcmc_composition () Bool)
(assert (= source_mcmc_composition target_mcmc_composition))

; mcmc_license_coverage: translation preserves property (matches Coq: Theorem)
(declare-fun source_mcmc_license_coverage () Bool)
(declare-fun target_mcmc_license_coverage () Bool)
(assert (= source_mcmc_license_coverage target_mcmc_license_coverage))

; nfp_highest_level: translation preserves property (matches Coq: Theorem)
(declare-fun source_nfp_highest_level () Bool)
(declare-fun target_nfp_highest_level () Bool)
(assert (= source_nfp_highest_level target_nfp_highest_level))

; csp_lowest_level: translation preserves property (matches Coq: Theorem)
(declare-fun source_csp_lowest_level () Bool)
(declare-fun target_csp_lowest_level () Bool)
(assert (= source_csp_lowest_level target_csp_lowest_level))

; license_level_positive: translation preserves property (matches Coq: Theorem)
(declare-fun source_license_level_positive () Bool)
(declare-fun target_license_level_positive () Bool)
(assert (= source_license_level_positive target_license_level_positive))

; mcmc_compliant_licensed: translation preserves property (matches Coq: Theorem)
(declare-fun source_mcmc_compliant_licensed () Bool)
(declare-fun target_mcmc_compliant_licensed () Bool)
(assert (= source_mcmc_compliant_licensed target_mcmc_compliant_licensed))

; mcmc_compliant_technical: translation preserves property (matches Coq: Theorem)
(declare-fun source_mcmc_compliant_technical () Bool)
(declare-fun target_mcmc_compliant_technical () Bool)
(assert (= source_mcmc_compliant_technical target_mcmc_compliant_technical))

; mcmc_compliant_consumer: translation preserves property (matches Coq: Theorem)
(declare-fun source_mcmc_compliant_consumer () Bool)
(declare-fun target_mcmc_compliant_consumer () Bool)
(assert (= source_mcmc_compliant_consumer target_mcmc_compliant_consumer))

; mcmc_compliant_interception: translation preserves property (matches Coq: Theorem)
(declare-fun source_mcmc_compliant_interception () Bool)
(declare-fun target_mcmc_compliant_interception () Bool)
(assert (= source_mcmc_compliant_interception target_mcmc_compliant_interception))

; mcmc_compliant_fraud: translation preserves property (matches Coq: Theorem)
(declare-fun source_mcmc_compliant_fraud () Bool)
(declare-fun target_mcmc_compliant_fraud () Bool)
(assert (= source_mcmc_compliant_fraud target_mcmc_compliant_fraud))

; count_mcmc_bounded: translation preserves property (matches Coq: Theorem)
(declare-fun source_count_mcmc_bounded () Bool)
(declare-fun target_count_mcmc_bounded () Bool)
(assert (= source_count_mcmc_bounded target_count_mcmc_bounded))

; mcmc_compliant_all_five: translation preserves property (matches Coq: Theorem)
(declare-fun source_mcmc_compliant_all_five () Bool)
(declare-fun target_mcmc_compliant_all_five () Bool)
(assert (= source_mcmc_compliant_all_five target_mcmc_compliant_all_five))

; license_eqb_refl: translation preserves property (matches Coq: Theorem)
(declare-fun source_license_eqb_refl () Bool)
(declare-fun target_license_eqb_refl () Bool)
(assert (= source_license_eqb_refl target_license_eqb_refl))

; fraud_requires_identity: translation preserves property (matches Coq: Theorem)
(declare-fun source_fraud_requires_identity () Bool)
(declare-fun target_fraud_requires_identity () Bool)
(assert (= source_fraud_requires_identity target_fraud_requires_identity))

; fraud_requires_signing: translation preserves property (matches Coq: Theorem)
(declare-fun source_fraud_requires_signing () Bool)
(declare-fun target_fraud_requires_signing () Bool)
(assert (= source_fraud_requires_signing target_fraud_requires_signing))

; fraud_requires_audit: translation preserves property (matches Coq: Theorem)
(declare-fun source_fraud_requires_audit () Bool)
(declare-fun target_fraud_requires_audit () Bool)
(assert (= source_fraud_requires_audit target_fraud_requires_audit))

; mcmc_license_count: translation preserves property (matches Coq: Theorem)
(declare-fun source_mcmc_license_count () Bool)
(declare-fun target_mcmc_license_count () Bool)
(assert (= source_mcmc_license_count target_mcmc_license_count))

; Verify all translation validations are satisfiable
(check-sat)
(exit)
